
        $ From http://www.csplib.org/Problems/prob009/data/helmut.pdf
        $ Problem number 48
        $ Sequence length : 25
        language ESSENCE' 1.0
        letting sizemaster be 147
        letting sizes be sequence(3,4,5,6,8,9,10,12,13,14,15,16,17,19,20,23,25,27,32,33,34,40,41,73,74)
        